61 19 32 37 39 63
24 54 12 36 53 56
26 3 5 46 15 50
2 11 22 47 65 40 41 0 20
23 14 9 31 66
30 6 4 21 27 35 51
33 1 55 8 59 60 43
64 10 38 48 62
13 16 28 34 45 58 69
57 18 29 42 44 52
25 7 17 49 67 68 70
